214983 11810
20143 11810
214457 12830
20115 11810
130605 210
11810 239485
11810 30033
11810 71196
11810 215058
172003 572562
172003 572566
172003 572573
19917 235007
555711 55917
265259 175746
2810 107430
7093 109453
7093 186648
12830 214469
9745 150852
311450 129914
268757 98292
175746 261308
175746 507708
17957 65743
19304 407539
